0 39 38 16 15 14 13 12 41 40 61 4 27 63 66 65 64 19 62 2 21 48 52 45 49 51 47 50 46 43 32 31 30 29 28 33 42 3 20 11 10 5 6 7 8 9 36 35 54 55 56 37 34 57 58 59 60 23 25 26 22 24 1 17 68 71 67 74 72 69 73 70 53 44 18 0 